1	17,2	2	0,0	3	12,5	4	18,7	5	0,0	6	0,0	7	0,0	8	0,0	9	0,0	10	7,0
1	20,0	2	9,8	3	0,0	4	10,1	5	17,8	6	0,0	7	0,0	8	10,4	9	0,0	10	0,0
1	0,0	2	0,0	3	11,8	4	0,0	5	9,8	6	19,7	7	0,0	8	0,0	9	17,3	10	0,0
1	9,3	2	0,0	3	18,8	4	0,0	5	0,0	6	0,0	7	5,6	8	0,0	9	0,0	10	0,0
1	0,0	2	11,1	3	0,0	4	14,2	5	15,2	6	0,0	7	0,0	8	15,1	9	0,0	10	0,0
1	0,0	2	6,4	3	10,6	4	0,0	5	19,1	6	16,0	7	0,0	8	0,0	9	15,1	10	0,0
1	0,0	2	16,9	3	0,0	4	7,6	5	0,0	6	0,0	7	15,4	8	0,0	9	0,0	10	19,1
1	13,8	2	0,0	3	19,5	4	0,0	5	0,0	6	0,0	7	0,0	8	0,0	9	0,0	10	14,6
1	0,0	2	8,4	3	0,0	4	11,5	5	10,2	6	0,0	7	0,0	8	14,5	9	0,0	10	0,0
1	0,0	2	0,0	3	19,9	4	0,0	5	0,0	6	18,4	7	9,0	8	0,0	9	0,0	10	13,8
																			
1	3,6	2	2,7	3	4,4	4	3,0	5	3,5	6	2,9	7	4,4	8	2,7	9	3,1	10	4,3
